networks/zoo_66_423/zoo_66_423-lower.txt
Number of groups: 31
Flow 1: {1 2 0} {2 35 0} 
Flow 2: {1 25 0} {25 4 0} {4 37 0} 
Flow 3: {4 5 0} {5 38 0} 
Flow 4: {25 22 0} {22 21 0} {21 6 0} {6 39 0} 
Flow 5: {1 7 0} {7 40 0} 
Flow 6: {21 9 0} {9 42 0} 
Flow 7: {22 14 0} {14 11 0} {11 44 0} 
Flow 8: {22 12 0} {12 45 0} 
Flow 9: {22 13 0} {13 46 0} 
Flow 10: {14 47 0} 
Flow 11: {14 15 0} {15 48 0} 
Flow 12: {7 8 0} {8 17 0} {17 16 0} {16 49 0} 
Flow 13: {17 50 0} 
Flow 14: {22 20 0} {20 53 0} 
Flow 15: {21 54 0} 
Flow 16: {22 55 0} 
Flow 17: {25 24 0} {24 57 0} 
Flow 18: {25 58 0} 
Flow 19: {9 26 0} {26 59 0} 
Flow 20: {22 28 0} {28 27 0} {27 60 0} 
Flow 21: {28 61 0} 
Flow 22: {22 29 0} {29 62 0} 
Flow 23: {22 30 0} {30 63 0} 
Flow 24: {22 31 0} {31 64 0} 
Flow 25: {31 32 0} {32 65 0} 
Flow 26: {2 1 0} Flow 27: {25 1 0} {1 34 0} 
Flow 27: {3 25 0} Flow 31: {3 22 0} Flow 38: {21 8 0} Flow 51: {4 25 0} Flow 54: {5 21 0} Flow 66: {5 4 0} Flow 70: {8 7 0} Flow 72: {21 11 0} Flow 73: {21 22 0} Flow 74: {11 14 0} Flow 78: {21 20 0} Flow 84: {26 27 0} Flow 89: {6 21 0} {7 1 0} Flow 92: {22 25 0} Flow 96: {7 2 0} Flow 97: {8 21 0} {21 5 0} Flow 109: {9 21 0} Flow 113: {9 6 0} Flow 126: {27 28 0} Flow 130: {10 21 0} Flow 135: {11 21 0} Flow 154: {12 22 0} Flow 155: {13 22 0} Flow 158: {14 22 0} Flow 177: {15 14 0} Flow 183: {16 17 0} {17 8 0} Flow 212: {18 17 0} Flow 214: {18 19 0} {19 21 0} Flow 215: {19 18 0} Flow 217: {20 22 0} Flow 218: {20 21 0} Flow 230: {21 10 0} {10 43 0} 
Flow 238: {18 51 0} 
Flow 238: {21 19 0} Flow 239: {19 52 0} 
Flow 242: {17 23 0} {23 56 0} 
Flow 252: {24 33 0} {33 66 0} 
Flow 279: {23 17 0} Flow 280: {24 25 0} Flow 300: {33 32 0} Flow 328: {26 9 0} Flow 351: {28 22 0} Flow 353: {27 26 0} Flow 372: {29 22 0} Flow 393: {30 22 0} Flow 395: {31 22 0} Flow 405: {32 31 0} Flow 412: {32 33 0} {33 24 0} Time taken running everything: 0 seconds
