networks/zoo_66_423/zoo_66_423-lower.sol
<?xml version = "1.0" encoding="UTF-8" standalone="yes"?>
<CPLEXSolution version="1.2">
 <header
   problemName="networks/zoo_66_423/zoo_66_423-lower.lp"
   solutionName="incumbent"
   solutionIndex="-1"
   objectiveValue="43"
   solutionTypeValue="3"
   solutionTypeString="primal"
   solutionStatusValue="101"
   solutionStatusString="integer optimal solution"
   solutionMethodString="mip"
   primalFeasible="1"
   dualFeasible="1"
   MIPNodes="0"
   MIPIterations="780"
   writeLevel="3"/>
 <quality
   epInt="1.0000000000000001e-05"
   epRHS="9.9999999999999995e-07"
   maxIntInfeas="0"
   maxPrimalInfeas="0"
   maxX="1"
   maxSlack="1"/>
 <variables>
  <variable name="Y(5,7)" index="262" value="1"/>
  <variable name="Y(26,1)" index="1600" value="1"/>
  <variable name="Y(29,4)" index="1795" value="1"/>
  <variable name="Y(40,20)" index="2515" value="1"/>
  <variable name="Y(50,32)" index="3167" value="1"/>
  <variable name="Y(54,9)" index="3400" value="1"/>
  <variable name="Y(67,1)" index="4224" value="1"/>
  <variable name="Y(94,31)" index="5982" value="1"/>
  <variable name="Y(96,2)" index="6081" value="1"/>
  <variable name="Y(100,21)" index="6356" value="1"/>
  <variable name="Y(116,15)" index="7374" value="1"/>
  <variable name="Y(126,28)" index="8027" value="1"/>
  <variable name="Y(134,10)" index="8521" value="1"/>
  <variable name="Y(154,22)" index="9813" value="1"/>
  <variable name="Y(156,13)" index="9932" value="1"/>
  <variable name="Y(161,5)" index="10244" value="1"/>
  <variable name="Y(180,14)" index="11469" value="1"/>
  <variable name="Y(184,17)" index="11728" value="1"/>
  <variable name="Y(212,1)" index="13504" value="1"/>
  <variable name="Y(214,19)" index="13650" value="1"/>
  <variable name="Y(218,20)" index="13907" value="1"/>
  <variable name="Y(221,25)" index="14104" value="1"/>
  <variable name="Y(227,21)" index="14484" value="1"/>
  <variable name="Y(230,10)" index="14665" value="1"/>
  <variable name="Y(238,18)" index="15185" value="1"/>
  <variable name="Y(239,19)" index="15250" value="1"/>
  <variable name="Y(240,21)" index="15316" value="1"/>
  <variable name="Y(242,23)" index="15446" value="1"/>
  <variable name="Y(252,33)" index="16096" value="1"/>
  <variable name="Y(260,11)" index="16586" value="1"/>
  <variable name="Y(261,12)" index="16651" value="1"/>
  <variable name="Y(262,13)" index="16716" value="1"/>
  <variable name="Y(276,30)" index="17629" value="1"/>
  <variable name="Y(279,23)" index="17814" value="1"/>
  <variable name="Y(287,14)" index="18317" value="1"/>
  <variable name="Y(300,33)" index="19168" value="1"/>
  <variable name="Y(332,6)" index="21189" value="1"/>
  <variable name="Y(360,26)" index="23001" value="1"/>
  <variable name="Y(362,29)" index="23132" value="1"/>
  <variable name="Y(381,16)" index="24335" value="1"/>
  <variable name="Y(393,30)" index="25117" value="1"/>
  <variable name="Y(412,24)" index="26327" value="1"/>
  <variable name="Y(415,27)" index="26522" value="1"/>
  <variable name="X(1,2,67)" index="27138" value="1"/>
  <variable name="X(1,7,5)" index="27499" value="1"/>
  <variable name="X(1,25,26)" index="27943" value="1"/>
  <variable name="X(1,34,212)" index="28552" value="1"/>
  <variable name="X(2,1,26)" index="28789" value="1"/>
  <variable name="X(2,35,96)" index="29282" value="1"/>
  <variable name="X(3,22,40)" index="29649" value="1"/>
  <variable name="X(3,25,29)" index="30061" value="1"/>
  <variable name="X(4,5,54)" index="30509" value="1"/>
  <variable name="X(4,25,67)" index="30945" value="1"/>
  <variable name="X(4,37,29)" index="31330" value="1"/>
  <variable name="X(5,4,67)" index="31791" value="1"/>
  <variable name="X(5,21,54)" index="32201" value="1"/>
  <variable name="X(5,38,161)" index="32731" value="1"/>
  <variable name="X(6,21,94)" index="33087" value="1"/>
  <variable name="X(6,39,332)" index="33748" value="1"/>
  <variable name="X(7,1,212)" index="34051" value="1"/>
  <variable name="X(7,2,96)" index="34358" value="1"/>
  <variable name="X(7,8,100)" index="34785" value="1"/>
  <variable name="X(7,40,5)" index="35113" value="1"/>
  <variable name="X(8,7,212)" index="35743" value="1"/>
  <variable name="X(8,17,381)" index="36335" value="1"/>
  <variable name="X(8,21,100)" index="36477" value="1"/>
  <variable name="X(9,6,332)" index="37132" value="1"/>
  <variable name="X(9,21,116)" index="37339" value="1"/>
  <variable name="X(9,26,126)" index="37772" value="1"/>
  <variable name="X(9,42,54)" index="38123" value="1"/>
  <variable name="X(10,21,134)" index="38626" value="1"/>
  <variable name="X(10,43,230)" index="39145" value="1"/>
  <variable name="X(11,14,116)" index="39454" value="1"/>
  <variable name="X(11,21,161)" index="39922" value="1"/>
  <variable name="X(11,44,260)" index="40444" value="1"/>
  <variable name="X(12,22,154)" index="40761" value="1"/>
  <variable name="X(12,45,261)" index="41291" value="1"/>
  <variable name="X(13,22,156)" index="41609" value="1"/>
  <variable name="X(13,46,262)" index="42138" value="1"/>
  <variable name="X(14,11,161)" index="42460" value="1"/>
  <variable name="X(14,15,116)" index="42838" value="1"/>
  <variable name="X(14,22,180)" index="43325" value="1"/>
  <variable name="X(14,47,287)" index="43855" value="1"/>
  <variable name="X(15,14,180)" index="44171" value="1"/>
  <variable name="X(15,48,116)" index="44530" value="1"/>
  <variable name="X(16,17,184)" index="45021" value="1"/>
  <variable name="X(16,49,381)" index="45641" value="1"/>
  <variable name="X(17,8,212)" index="45895" value="1"/>
  <variable name="X(17,16,381)" index="46487" value="1"/>
  <variable name="X(17,23,242)" index="46771" value="1"/>
  <variable name="X(17,50,184)" index="47136" value="1"/>
  <variable name="X(18,17,212)" index="47587" value="1"/>
  <variable name="X(18,19,214)" index="48012" value="1"/>
  <variable name="X(18,51,238)" index="48459" value="1"/>
  <variable name="X(19,18,238)" index="48882" value="1"/>
  <variable name="X(19,21,214)" index="49281" value="1"/>
  <variable name="X(19,52,239)" index="49729" value="1"/>
  <variable name="X(20,21,218)" index="50131" value="1"/>
  <variable name="X(20,22,221)" index="50557" value="1"/>
  <variable name="X(20,53,40)" index="50799" value="1"/>
  <variable name="X(21,5,161)" index="51343" value="1"/>
  <variable name="X(21,6,227)" index="51832" value="1"/>
  <variable name="X(21,8,381)" index="52409" value="1"/>
  <variable name="X(21,9,54)" index="52505" value="1"/>
  <variable name="X(21,10,230)" index="53104" value="1"/>
  <variable name="X(21,11,116)" index="53413" value="1"/>
  <variable name="X(21,19,239)" index="53959" value="1"/>
  <variable name="X(21,20,240)" index="54383" value="1"/>
  <variable name="X(21,22,94)" index="54660" value="1"/>
  <variable name="X(21,54,100)" index="55089" value="1"/>
  <variable name="X(22,12,261)" index="55673" value="1"/>
  <variable name="X(22,13,262)" index="56097" value="1"/>
  <variable name="X(22,14,287)" index="56545" value="1"/>
  <variable name="X(22,20,40)" index="56721" value="1"/>
  <variable name="X(22,21,381)" index="57485" value="1"/>
  <variable name="X(22,25,221)" index="57748" value="1"/>
  <variable name="X(22,28,415)" index="58365" value="1"/>
  <variable name="X(22,29,362)" index="58735" value="1"/>
  <variable name="X(22,30,276)" index="59072" value="1"/>
  <variable name="X(22,31,94)" index="59313" value="1"/>
  <variable name="X(22,55,154)" index="59796" value="1"/>
  <variable name="X(23,17,279)" index="60344" value="1"/>
  <variable name="X(23,56,242)" index="60730" value="1"/>
  <variable name="X(24,25,287)" index="61198" value="1"/>
  <variable name="X(24,33,252)" index="61586" value="1"/>
  <variable name="X(24,57,412)" index="62169" value="1"/>
  <variable name="X(25,1,67)" index="62247" value="1"/>
  <variable name="X(25,4,29)" index="62632" value="1"/>
  <variable name="X(25,22,287)" index="63313" value="1"/>
  <variable name="X(25,24,252)" index="63701" value="1"/>
  <variable name="X(25,58,221)" index="64093" value="1"/>
  <variable name="X(26,9,332)" index="64627" value="1"/>
  <variable name="X(26,27,126)" index="64844" value="1"/>
  <variable name="X(26,59,360)" index="65501" value="1"/>
  <variable name="X(27,26,360)" index="65924" value="1"/>
  <variable name="X(27,28,126)" index="66113" value="1"/>
  <variable name="X(27,60,415)" index="66825" value="1"/>
  <variable name="X(28,22,362)" index="67195" value="1"/>
  <variable name="X(28,27,415)" index="67671" value="1"/>
  <variable name="X(28,61,126)" index="67805" value="1"/>
  <variable name="X(29,22,381)" index="68483" value="1"/>
  <variable name="X(29,62,362)" index="68887" value="1"/>
  <variable name="X(30,22,393)" index="69341" value="1"/>
  <variable name="X(30,63,276)" index="69647" value="1"/>
  <variable name="X(31,22,415)" index="70209" value="1"/>
  <variable name="X(31,32,50)" index="70267" value="1"/>
  <variable name="X(31,64,94)" index="70734" value="1"/>
  <variable name="X(32,31,415)" index="71478" value="1"/>
  <variable name="X(32,33,412)" index="71898" value="1"/>
  <variable name="X(32,65,50)" index="71959" value="1"/>
  <variable name="X(33,24,412)" index="72744" value="1"/>
  <variable name="X(33,32,300)" index="73055" value="1"/>
  <variable name="X(33,66,252)" index="73430" value="1"/>
 </variables>
</CPLEXSolution>
